<?xml version = "1.0" standalone="yes"?>
<!-- This file has been generated by DOcplex version 2.23.222  -->
<CPLEXSolution version="1.0">
 <header
   problemName="CVRP"
   objectiveValue="7670.74"
  />
 <variables>
  <variable name="x_0_1" index="0" value="1.00000"/>
  <variable name="x_0_2" index="1" value="1.00000"/>
  <variable name="x_0_7" index="6" value="1.00000"/>
  <variable name="x_0_9" index="8" value="1.00000"/>
  <variable name="x_0_11" index="10" value="1.00000"/>
  <variable name="x_0_12" index="11" value="1.00000"/>
  <variable name="x_0_13" index="12" value="1.00000"/>
  <variable name="x_1_0" index="13" value="1.00000"/>
  <variable name="x_2_4" index="29" value="1.00000"/>
  <variable name="x_3_8" index="46" value="1.00000"/>
  <variable name="x_4_10" index="61" value="1.00000"/>
  <variable name="x_5_0" index="65" value="1.00000"/>
  <variable name="x_6_0" index="78" value="1.00000"/>
  <variable name="x_7_5" index="96" value="1.00000"/>
  <variable name="x_8_0" index="104" value="1.00000"/>
  <variable name="x_9_3" index="120" value="1.00000"/>
  <variable name="x_10_0" index="130" value="1.00000"/>
  <variable name="x_11_0" index="143" value="1.00000"/>
  <variable name="x_12_0" index="156" value="1.00000"/>
  <variable name="x_13_6" index="175" value="1.00000"/>
  <variable name="u_1" index="182" value="28.00000"/>
  <variable name="u_2" index="183" value="3.00000"/>
  <variable name="u_3" index="184" value="18.00000"/>
  <variable name="u_4" index="185" value="19.00000"/>
  <variable name="u_5" index="186" value="27.00000"/>
  <variable name="u_6" index="187" value="25.00000"/>
  <variable name="u_7" index="188" value="24.00000"/>
  <variable name="u_8" index="189" value="26.00000"/>
  <variable name="u_9" index="190" value="2.00000"/>
  <variable name="u_10" index="191" value="24.00000"/>
  <variable name="u_11" index="192" value="16.00000"/>
  <variable name="u_12" index="193" value="23.00000"/>
  <variable name="u_13" index="194" value="9.00000"/>
 </variables>
</CPLEXSolution>
